
===== New CPLEX run =====
Instance: /home/yorig/tuner/mpils-tests/instances/miplib/medium-2/supportcase40.mps
Config: /scratch/yorig/mpils-results-grid-ticks-10000-2proc-no-mip-start/medium-2/2proc/seed-3/8_supportcase40_seed-3_20260501_234041/iterated_local_search/run_2_worker_1/ils_config_6872595850944745872.prm
========================

Selected objective sense:  MINIMIZE
Selected objective  name:  obj
Selected RHS        name:  rhs
Selected bound      name:  bnd
Version identifier: 22.1.2.0 | 2024-11-26 | 0edbb82fd
CPXPARAM_Threads                                 8
CPXPARAM_Parallel                                1
CPXPARAM_MIP_Cuts_Cliques                        2
CPXPARAM_MIP_Cuts_FlowCovers                     -1
CPXPARAM_MIP_Cuts_Implied                        -1
CPXPARAM_MIP_Cuts_GUBCovers                      2
CPXPARAM_MIP_Limits_GomoryCand                   150
CPXPARAM_MIP_Cuts_Gomory                         2
CPXPARAM_MIP_Cuts_PathCut                        2
CPXPARAM_MIP_Cuts_MIRCut                         2
CPXPARAM_Emphasis_MIP                            1
CPXPARAM_DetTimeLimit                            10000
CPXPARAM_MIP_Limits_ProbeTime                    5
Tried aggregator 2 times.
MIP Presolve eliminated 29622 rows and 11272 columns.
MIP Presolve modified 700 coefficients.
Aggregator did 100 substitutions.
Reduced MIP has 8469 rows, 5068 columns, and 24192 nonzeros.
Reduced MIP has 300 binaries, 0 generals, 0 SOSs, and 0 indicators.
Presolve time = 0.01 sec. (31.66 ticks)
Found incumbent of value 213568.377872 after 0.03 sec. (64.35 ticks)
Probing time = 0.00 sec. (1.10 ticks)
Tried aggregator 1 time.
Detecting symmetries...
Reduced MIP has 8469 rows, 5068 columns, and 24192 nonzeros.
Reduced MIP has 300 binaries, 0 generals, 0 SOSs, and 0 indicators.
Presolve time = 0.01 sec. (12.02 ticks)
Probing time = 0.00 sec. (0.85 ticks)
Clique table members: 100.
MIP emphasis: integer feasibility.
MIP search method: dynamic search.
Parallel mode: deterministic, using up to 8 threads.
Root relaxation solution time = 0.15 sec. (175.06 ticks)

        Nodes                                         Cuts/
   Node  Left     Objective  IInf  Best Integer    Best Bound    ItCnt     Gap

*     0+    0                       213568.3779     3301.6156            98.45%
*     0+    0                        36874.2135     3301.6156            91.05%
      0     0    22536.4834    38    36874.2135    22536.4834     4631   38.88%
      0     0    22643.5396    38    36874.2135      Cuts: 34     4896   38.59%
*     0+    0                        31791.2147    22643.5396            28.77%
      0     0    22702.3791    38    31791.2147      Cuts: 30     5053   28.59%
      0     0    22720.6527    42    31791.2147      Cuts: 23     5097   28.53%
Detecting symmetries...
      0     2    22720.6527    42    31791.2147    22720.6527     5097   28.53%
Elapsed time = 0.85 sec. (599.63 ticks, tree = 0.02 MB, solutions = 3)
     14     4    24006.4825    26    31791.2147    22750.1669     6554   28.44%
*    19+    2                        31454.7694    22750.1669            27.67%
*    35+   15                        30171.1018    22750.1669            24.60%
     56    36    23422.7774    36    30171.1018    22750.1669    12302   24.60%
     82    64    24083.4613    28    30171.1018    22750.1669    21037   24.60%
*    94+   68                        25233.9964    22750.1669             9.84%
*    99+   87                        25197.0554    22750.1669             9.71%
*   102+   85                        25081.8073    22750.1669             9.30%
*   129    94      integral     0    25066.4683    22750.1669    30035    9.24%
    131    93    24982.5821    15    25066.4683    22750.1669    29972    9.24%
    170    95    24882.8796    10    25066.4683    22750.1669    36781    9.24%
    213   126    25038.9311    16    25066.4683    22750.1669    45377    9.24%
*   269   172      integral     0    25052.5898    22750.1669    57527    9.19%
    270   169    25051.6688     2    25052.5898    22750.1669    55416    9.19%
*   282+  162                        25044.0983    22750.1669             9.16%
*   293+  165                        24944.9530    22750.1669             8.80%
*   327+  161                        24943.9779    22811.0915             8.55%
    374   183    24450.2113    28    24943.9779    22811.0915    66566    8.55%
*   386+  167                        24911.0902    22811.0915             8.43%
    483   263    24704.5661    29    24911.0902    22811.0915    75407    8.43%
*   752+  277                        24892.1440    22811.0915             8.36%
*   769   347      integral     0    24890.0436    22811.0915    89368    8.35%
*  1056   405      integral     0    24737.1367    22811.0915    94191    7.79%
   1158   572    24045.9160    20    24737.1367    22816.0486   104828    7.77%
Elapsed time = 5.47 sec. (3757.09 ticks, tree = 19.97 MB, solutions = 21)
*  1528+  764                        24340.4329    22816.0486             6.26%
   1562   788    23742.4802    36    24340.4329    22816.0486   124785    6.26%
   1716   513    23533.1276    38    24340.4329    22816.0486    94500    6.26%
   2201   850    24194.0750    28    24340.4329    22816.0486   131800    6.26%
   3162  1793    23949.5646    34    24340.4329    22816.0486   149387    6.26%

GUB cover cuts applied:  0
Clique cuts applied:  0
Mixed integer rounding cuts applied:  11
Flow path cuts applied:  0
Gomory fractional cuts applied:  53

Root node processing (before b&c):
  Real time             =    0.65 sec. (596.55 ticks)
Parallel b&c, 8 threads:
  Real time             =   13.24 sec. (9414.70 ticks)
  Sync time (average)   =    2.58 sec.
  Wait time (average)   =    0.00 sec.
                          ------------
Total (root+branch&cut) =   13.89 sec. (10011.25 ticks)
Gap: 6.26%
Upper bound: 24340.4
Lower bound: 22816
End of CPLEX run. Time: 13.8903 seconds

===== New CPLEX run =====
Instance: /home/yorig/tuner/mpils-tests/instances/miplib/medium-2/supportcase40.mps
Config: /scratch/yorig/mpils-results-grid-ticks-10000-2proc-no-mip-start/medium-2/2proc/seed-3/8_supportcase40_seed-3_20260501_234041/iterated_local_search/run_2_worker_1/ils_config_16786998779754643778.prm
========================

Selected objective sense:  MINIMIZE
Selected objective  name:  obj
Selected RHS        name:  rhs
Selected bound      name:  bnd
Version identifier: 22.1.2.0 | 2024-11-26 | 0edbb82fd
CPXPARAM_Threads                                 8
CPXPARAM_Parallel                                1
CPXPARAM_MIP_Cuts_Cliques                        2
CPXPARAM_MIP_Cuts_FlowCovers                     -1
CPXPARAM_MIP_Cuts_Implied                        -1
CPXPARAM_MIP_Cuts_GUBCovers                      2
CPXPARAM_MIP_Limits_GomoryCand                   150
CPXPARAM_MIP_Cuts_Gomory                         2
CPXPARAM_MIP_Cuts_PathCut                        2
CPXPARAM_MIP_Cuts_MIRCut                         2
CPXPARAM_Emphasis_MIP                            1
CPXPARAM_DetTimeLimit                            10000
CPXPARAM_MIP_Limits_ProbeTime                    30
Tried aggregator 2 times.
MIP Presolve eliminated 29622 rows and 11272 columns.
MIP Presolve modified 700 coefficients.
Aggregator did 100 substitutions.
Reduced MIP has 8469 rows, 5068 columns, and 24192 nonzeros.
Reduced MIP has 300 binaries, 0 generals, 0 SOSs, and 0 indicators.
Presolve time = 0.01 sec. (31.66 ticks)
Found incumbent of value 213568.377872 after 0.03 sec. (64.35 ticks)
Probing time = 0.01 sec. (1.10 ticks)
Tried aggregator 1 time.
Detecting symmetries...
Reduced MIP has 8469 rows, 5068 columns, and 24192 nonzeros.
Reduced MIP has 300 binaries, 0 generals, 0 SOSs, and 0 indicators.
Presolve time = 0.01 sec. (12.02 ticks)
Probing time = 0.00 sec. (0.85 ticks)
Clique table members: 100.
MIP emphasis: integer feasibility.
MIP search method: dynamic search.
Parallel mode: deterministic, using up to 8 threads.
Root relaxation solution time = 0.12 sec. (175.06 ticks)

        Nodes                                         Cuts/
   Node  Left     Objective  IInf  Best Integer    Best Bound    ItCnt     Gap

*     0+    0                       213568.3779     3301.6156            98.45%
*     0+    0                        36874.2135     3301.6156            91.05%
      0     0    22536.4834    38    36874.2135    22536.4834     4631   38.88%
      0     0    22643.5396    38    36874.2135      Cuts: 34     4896   38.59%
*     0+    0                        31791.2147    22643.5396            28.77%
      0     0    22702.3791    38    31791.2147      Cuts: 30     5053   28.59%
      0     0    22720.6527    42    31791.2147      Cuts: 23     5097   28.53%
Detecting symmetries...
      0     2    22720.6527    42    31791.2147    22720.6527     5097   28.53%
Elapsed time = 0.94 sec. (599.63 ticks, tree = 0.02 MB, solutions = 3)
     14     4    24006.4825    26    31791.2147    22750.1669     6554   28.44%
*    19+    2                        31454.7694    22750.1669            27.67%
*    35+   15                        30171.1018    22750.1669            24.60%
     56    36    23422.7774    36    30171.1018    22750.1669    12302   24.60%
     82    64    24083.4613    28    30171.1018    22750.1669    21037   24.60%
*    94+   68                        25233.9964    22750.1669             9.84%
*    99+   87                        25197.0554    22750.1669             9.71%
*   102+   85                        25081.8073    22750.1669             9.30%
*   129    94      integral     0    25066.4683    22750.1669    30035    9.24%
    131    93    24982.5821    15    25066.4683    22750.1669    29972    9.24%
    170    95    24882.8796    10    25066.4683    22750.1669    36781    9.24%
    213   126    25038.9311    16    25066.4683    22750.1669    45377    9.24%
*   269   172      integral     0    25052.5898    22750.1669    57527    9.19%
    270   169    25051.6688     2    25052.5898    22750.1669    55416    9.19%
*   282+  162                        25044.0983    22750.1669             9.16%
*   293+  165                        24944.9530    22750.1669             8.80%
*   327+  161                        24943.9779    22811.0915             8.55%
    374   183    24450.2113    28    24943.9779    22811.0915    66566    8.55%
*   386+  167                        24911.0902    22811.0915             8.43%
    483   263    24704.5661    29    24911.0902    22811.0915    75407    8.43%
*   752+  277                        24892.1440    22811.0915             8.36%
*   769   347      integral     0    24890.0436    22811.0915    89368    8.35%
*  1056   405      integral     0    24737.1367    22811.0915    94191    7.79%
   1158   572    24045.9160    20    24737.1367    22816.0486   104828    7.77%
Elapsed time = 5.70 sec. (3757.09 ticks, tree = 19.97 MB, solutions = 21)
*  1528+  764                        24340.4329    22816.0486             6.26%
   1562   788    23742.4802    36    24340.4329    22816.0486   124785    6.26%
   1716   513    23533.1276    38    24340.4329    22816.0486    94500    6.26%
   2201   850    24194.0750    28    24340.4329    22816.0486   131800    6.26%
   3162  1793    23949.5646    34    24340.4329    22816.0486   149387    6.26%

GUB cover cuts applied:  0
Clique cuts applied:  0
Mixed integer rounding cuts applied:  11
Flow path cuts applied:  0
Gomory fractional cuts applied:  53

Root node processing (before b&c):
  Real time             =    0.63 sec. (596.55 ticks)
Parallel b&c, 8 threads:
  Real time             =   13.25 sec. (9414.70 ticks)
  Sync time (average)   =    2.61 sec.
  Wait time (average)   =    0.00 sec.
                          ------------
Total (root+branch&cut) =   13.89 sec. (10011.25 ticks)
Gap: 6.26%
Upper bound: 24340.4
Lower bound: 22816
End of CPLEX run. Time: 13.891 seconds

===== New CPLEX run =====
Instance: /home/yorig/tuner/mpils-tests/instances/miplib/medium-2/supportcase40.mps
Config: /scratch/yorig/mpils-results-grid-ticks-10000-2proc-no-mip-start/medium-2/2proc/seed-3/8_supportcase40_seed-3_20260501_234041/iterated_local_search/run_2_worker_1/ils_config_3760055039735269049.prm
========================

Selected objective sense:  MINIMIZE
Selected objective  name:  obj
Selected RHS        name:  rhs
Selected bound      name:  bnd
Version identifier: 22.1.2.0 | 2024-11-26 | 0edbb82fd
CPXPARAM_Threads                                 8
CPXPARAM_Parallel                                1
CPXPARAM_MIP_Cuts_Cliques                        2
CPXPARAM_MIP_Cuts_FlowCovers                     -1
CPXPARAM_MIP_Cuts_Implied                        -1
CPXPARAM_MIP_Cuts_GUBCovers                      2
CPXPARAM_MIP_Cuts_Gomory                         2
CPXPARAM_MIP_Cuts_PathCut                        2
CPXPARAM_MIP_Cuts_MIRCut                         2
CPXPARAM_Emphasis_MIP                            1
CPXPARAM_DetTimeLimit                            10000
CPXPARAM_MIP_Limits_ProbeTime                    5
Tried aggregator 2 times.
MIP Presolve eliminated 29622 rows and 11272 columns.
MIP Presolve modified 700 coefficients.
Aggregator did 100 substitutions.
Reduced MIP has 8469 rows, 5068 columns, and 24192 nonzeros.
Reduced MIP has 300 binaries, 0 generals, 0 SOSs, and 0 indicators.
Presolve time = 0.01 sec. (31.66 ticks)
Found incumbent of value 213568.377872 after 0.03 sec. (64.35 ticks)
Probing time = 0.00 sec. (1.10 ticks)
Tried aggregator 1 time.
Detecting symmetries...
Reduced MIP has 8469 rows, 5068 columns, and 24192 nonzeros.
Reduced MIP has 300 binaries, 0 generals, 0 SOSs, and 0 indicators.
Presolve time = 0.01 sec. (12.02 ticks)
Probing time = 0.00 sec. (0.85 ticks)
Clique table members: 100.
MIP emphasis: integer feasibility.
MIP search method: dynamic search.
Parallel mode: deterministic, using up to 8 threads.
Root relaxation solution time = 0.13 sec. (175.06 ticks)

        Nodes                                         Cuts/
   Node  Left     Objective  IInf  Best Integer    Best Bound    ItCnt     Gap

*     0+    0                       213568.3779     3301.6156            98.45%
*     0+    0                        36874.2135     3301.6156            91.05%
      0     0    22536.4834    38    36874.2135    22536.4834     4631   38.88%
      0     0    22643.5396    38    36874.2135      Cuts: 34     4896   38.59%
*     0+    0                        31791.2147    22643.5396            28.77%
      0     0    22702.3791    38    31791.2147      Cuts: 30     5053   28.59%
      0     0    22720.6527    42    31791.2147      Cuts: 23     5097   28.53%
Detecting symmetries...
      0     2    22720.6527    42    31791.2147    22720.6527     5097   28.53%
Elapsed time = 0.73 sec. (599.63 ticks, tree = 0.02 MB, solutions = 3)
     14     4    24006.4825    26    31791.2147    22750.1669     6554   28.44%
*    19+    2                        31454.7694    22750.1669            27.67%
*    35+   15                        30171.1018    22750.1669            24.60%
     56    36    23422.7774    36    30171.1018    22750.1669    12302   24.60%
     82    64    24083.4613    28    30171.1018    22750.1669    21037   24.60%
*    94+   68                        25233.9964    22750.1669             9.84%
*    99+   87                        25197.0554    22750.1669             9.71%
*   102+   85                        25081.8073    22750.1669             9.30%
*   129    94      integral     0    25066.4683    22750.1669    30035    9.24%
    131    93    24982.5821    15    25066.4683    22750.1669    29972    9.24%
    170    95    24882.8796    10    25066.4683    22750.1669    36781    9.24%
    213   126    25038.9311    16    25066.4683    22750.1669    45377    9.24%
*   269   172      integral     0    25052.5898    22750.1669    57527    9.19%
    270   169    25051.6688     2    25052.5898    22750.1669    55416    9.19%
*   282+  162                        25044.0983    22750.1669             9.16%
*   293+  165                        24944.9530    22750.1669             8.80%
*   327+  161                        24943.9779    22811.0915             8.55%
    374   183    24450.2113    28    24943.9779    22811.0915    66566    8.55%
*   386+  167                        24911.0902    22811.0915             8.43%
    483   263    24704.5661    29    24911.0902    22811.0915    75407    8.43%
*   752+  277                        24892.1440    22811.0915             8.36%
*   769   347      integral     0    24890.0436    22811.0915    89368    8.35%
*  1056   405      integral     0    24737.1367    22811.0915    94191    7.79%
   1158   572    24045.9160    20    24737.1367    22816.0486   104828    7.77%
Elapsed time = 5.25 sec. (3757.09 ticks, tree = 19.97 MB, solutions = 21)
*  1528+  764                        24340.4329    22816.0486             6.26%
   1562   788    23742.4802    36    24340.4329    22816.0486   124785    6.26%
   1716   513    23533.1276    38    24340.4329    22816.0486    94500    6.26%
   2201   850    24194.0750    28    24340.4329    22816.0486   131800    6.26%
   3162  1793    23949.5646    34    24340.4329    22816.0486   149387    6.26%

GUB cover cuts applied:  0
Clique cuts applied:  0
Mixed integer rounding cuts applied:  11
Flow path cuts applied:  0
Gomory fractional cuts applied:  53

Root node processing (before b&c):
  Real time             =    0.54 sec. (596.55 ticks)
Parallel b&c, 8 threads:
  Real time             =   12.85 sec. (9414.70 ticks)
  Sync time (average)   =    2.28 sec.
  Wait time (average)   =    0.00 sec.
                          ------------
Total (root+branch&cut) =   13.39 sec. (10011.25 ticks)
Gap: 6.26%
Upper bound: 24340.4
Lower bound: 22816
End of CPLEX run. Time: 13.3971 seconds

===== New CPLEX run =====
Instance: /home/yorig/tuner/mpils-tests/instances/miplib/medium-2/supportcase40.mps
Config: /scratch/yorig/mpils-results-grid-ticks-10000-2proc-no-mip-start/medium-2/2proc/seed-3/8_supportcase40_seed-3_20260501_234041/iterated_local_search/run_2_worker_1/ils_config_13297019160396083073.prm
========================

Selected objective sense:  MINIMIZE
Selected objective  name:  obj
Selected RHS        name:  rhs
Selected bound      name:  bnd
Version identifier: 22.1.2.0 | 2024-11-26 | 0edbb82fd
CPXPARAM_Threads                                 8
CPXPARAM_Parallel                                1
CPXPARAM_MIP_Cuts_Cliques                        2
CPXPARAM_MIP_Cuts_FlowCovers                     -1
CPXPARAM_MIP_Cuts_Implied                        -1
CPXPARAM_MIP_Cuts_GUBCovers                      2
CPXPARAM_MIP_Limits_GomoryCand                   150
CPXPARAM_MIP_Cuts_Gomory                         -1
CPXPARAM_MIP_Cuts_PathCut                        2
CPXPARAM_MIP_Cuts_MIRCut                         2
CPXPARAM_Emphasis_MIP                            1
CPXPARAM_DetTimeLimit                            10000
CPXPARAM_MIP_Limits_ProbeTime                    5
Tried aggregator 2 times.
MIP Presolve eliminated 29622 rows and 11272 columns.
MIP Presolve modified 700 coefficients.
Aggregator did 100 substitutions.
Reduced MIP has 8469 rows, 5068 columns, and 24192 nonzeros.
Reduced MIP has 300 binaries, 0 generals, 0 SOSs, and 0 indicators.
Presolve time = 0.01 sec. (31.66 ticks)
Found incumbent of value 213568.377872 after 0.05 sec. (64.35 ticks)
Probing time = 0.20 sec. (1.10 ticks)
Tried aggregator 1 time.
Detecting symmetries...
Reduced MIP has 8469 rows, 5068 columns, and 24192 nonzeros.
Reduced MIP has 300 binaries, 0 generals, 0 SOSs, and 0 indicators.
Presolve time = 0.01 sec. (12.02 ticks)
Probing time = 0.08 sec. (0.85 ticks)
Clique table members: 100.
MIP emphasis: integer feasibility.
MIP search method: dynamic search.
Parallel mode: deterministic, using up to 8 threads.
Root relaxation solution time = 0.15 sec. (175.06 ticks)

        Nodes                                         Cuts/
   Node  Left     Objective  IInf  Best Integer    Best Bound    ItCnt     Gap

*     0+    0                       213568.3779     3301.6156            98.45%
*     0+    0                        36874.2135     3301.6156            91.05%
      0     0    22536.4834    38    36874.2135    22536.4834     4631   38.88%
      0     0    22540.1468    39    36874.2135       Cuts: 3     4656   38.87%
*     0+    0                        35882.2249    22540.1468            37.18%
*     0+    0                        34888.8675    22540.1468            35.39%
      0     0    22540.1542    40    34888.8675   LiftProj: 1     4662   35.39%
Detecting symmetries...
      0     2    22540.1542    40    34888.8675    22540.1542     4662   35.39%
Elapsed time = 1.01 sec. (621.84 ticks, tree = 0.02 MB, solutions = 4)
*     2+    1                        34773.4047    22540.5559            35.18%
*    21+    5                        29722.9013    22555.7884            24.11%
*    37+    4                        27513.0186    22571.3296            17.96%
     37     6    23859.5278    28    27513.0186    22571.3296     5765   17.96%
*    53+   41                        25275.1043    22571.3296            10.70%
*    68    53      integral     0    25262.8685    22571.3296    14057   10.65%
*    84+   70                        25147.4099    22571.3296            10.24%
     86    79    24141.0146    26    25147.4099    22571.3296    20272   10.24%
*   109+   78                        25022.0039    22571.3296             9.79%
*   134+   85                        24968.6230    22571.3296             9.60%
    147    98        cutoff          24968.6230    22571.3296    28247    9.60%
    190   124    23170.1808    34    24968.6230    22571.3296    36642    9.60%
*   197+  126                        24829.3709    22571.3296             9.09%
*   238   115      integral     0    24636.5255    22571.3296    42705    8.38%
    305   139    24131.9331    28    24636.5255    22571.3296    40490    8.38%
    530   217    24559.1131    18    24636.5255    22571.3296    52808    8.38%
    747   332        cutoff          24636.5255    22571.3296    62802    8.38%
    908   390    24494.3023    20    24636.5255    22571.3296    68117    8.38%
   1024   436    24594.1105    13    24636.5255    22571.3296    75555    8.38%
   1057   459    24179.3562    28    24636.5255    22571.3296    81965    8.38%
Elapsed time = 5.20 sec. (3766.87 ticks, tree = 17.25 MB, solutions = 15)
*  1159   485      integral     0    24529.4361    22571.3296    87607    7.98%
*  1174   473      integral     0    24520.9173    22571.3296    87860    7.95%
*  1178   471      integral     0    24515.5668    22571.3296    87861    7.93%
   1190   539    24170.4537    28    24515.5668    22571.3296    87524    7.93%
   1754   931    23904.3937    34    24515.5668    22588.4589    95129    7.86%
   3124  1862    24311.7416    32    24515.5668    22588.4589   112099    7.86%
   3584   312    24617.3563    18    24515.5668    22588.4589    58272    7.86%

Performing restart 1

Repeating presolve.
Tried aggregator 1 time.
Reduced MIP has 8469 rows, 5068 columns, and 24192 nonzeros.
Reduced MIP has 300 binaries, 0 generals, 0 SOSs, and 0 indicators.
Presolve time = 0.01 sec. (8.80 ticks)
Tried aggregator 1 time.
Reduced MIP has 8469 rows, 5068 columns, and 24192 nonzeros.
Reduced MIP has 300 binaries, 0 generals, 0 SOSs, and 0 indicators.
Presolve time = 0.01 sec. (12.23 ticks)
Represolve time = 0.13 sec. (42.57 ticks)
   3771    80    24221.0542    18    24515.5668    22588.4589   149864    7.86%
   4402   202    24364.0470    26    24515.5668    22735.2003   192349    7.26%

GUB cover cuts applied:  0
Clique cuts applied:  0
Mixed integer rounding cuts applied:  15
Flow path cuts applied:  0
Lift and project cuts applied:  2

Root node processing (before b&c):
  Real time             =    0.97 sec. (620.46 ticks)
Parallel b&c, 8 threads:
  Real time             =   12.74 sec. (9385.76 ticks)
  Sync time (average)   =    3.41 sec.
  Wait time (average)   =    0.00 sec.
                          ------------
Total (root+branch&cut) =   13.70 sec. (10006.22 ticks)
Gap: 7.26%
Upper bound: 24515.6
Lower bound: 22735.2
End of CPLEX run. Time: 13.7176 seconds

===== New CPLEX run =====
Instance: /home/yorig/tuner/mpils-tests/instances/miplib/medium-2/supportcase40.mps
Config: /scratch/yorig/mpils-results-grid-ticks-10000-2proc-no-mip-start/medium-2/2proc/seed-3/8_supportcase40_seed-3_20260501_234041/iterated_local_search/run_2_worker_1/ils_config_2171072250055531159.prm
========================

Selected objective sense:  MINIMIZE
Selected objective  name:  obj
Selected RHS        name:  rhs
Selected bound      name:  bnd
Version identifier: 22.1.2.0 | 2024-11-26 | 0edbb82fd
CPXPARAM_Threads                                 8
CPXPARAM_Parallel                                1
CPXPARAM_MIP_Cuts_FlowCovers                     -1
CPXPARAM_MIP_Cuts_Implied                        -1
CPXPARAM_MIP_Cuts_GUBCovers                      2
CPXPARAM_MIP_Limits_GomoryCand                   150
CPXPARAM_MIP_Cuts_Gomory                         2
CPXPARAM_MIP_Cuts_PathCut                        2
CPXPARAM_MIP_Cuts_MIRCut                         2
CPXPARAM_Emphasis_MIP                            1
CPXPARAM_DetTimeLimit                            10000
CPXPARAM_MIP_Limits_ProbeTime                    5
Tried aggregator 2 times.
MIP Presolve eliminated 29622 rows and 11272 columns.
MIP Presolve modified 700 coefficients.
Aggregator did 100 substitutions.
Reduced MIP has 8469 rows, 5068 columns, and 24192 nonzeros.
Reduced MIP has 300 binaries, 0 generals, 0 SOSs, and 0 indicators.
Presolve time = 0.01 sec. (31.66 ticks)
Found incumbent of value 213568.377872 after 0.05 sec. (64.35 ticks)
Probing time = 0.10 sec. (1.10 ticks)
Tried aggregator 1 time.
Detecting symmetries...
Reduced MIP has 8469 rows, 5068 columns, and 24192 nonzeros.
Reduced MIP has 300 binaries, 0 generals, 0 SOSs, and 0 indicators.
Presolve time = 0.01 sec. (12.02 ticks)
Probing time = 0.22 sec. (0.85 ticks)
Clique table members: 100.
MIP emphasis: integer feasibility.
MIP search method: dynamic search.
Parallel mode: deterministic, using up to 8 threads.
Root relaxation solution time = 0.20 sec. (175.06 ticks)

        Nodes                                         Cuts/
   Node  Left     Objective  IInf  Best Integer    Best Bound    ItCnt     Gap

*     0+    0                       213568.3779     3301.6156            98.45%
*     0+    0                        36874.2135     3301.6156            91.05%
      0     0    22536.4834    38    36874.2135    22536.4834     4631   38.88%
      0     0    22643.5396    38    36874.2135      Cuts: 34     4896   38.59%
*     0+    0                        31791.2147    22643.5396            28.77%
      0     0    22702.3791    38    31791.2147      Cuts: 30     5053   28.59%
      0     0    22720.6527    42    31791.2147      Cuts: 23     5097   28.53%
Detecting symmetries...
      0     2    22720.6527    42    31791.2147    22720.6527     5097   28.53%
Elapsed time = 1.15 sec. (599.63 ticks, tree = 0.02 MB, solutions = 3)
     14     4    24006.4825    26    31791.2147    22750.1669     6554   28.44%
*    19+    2                        31454.7694    22750.1669            27.67%
*    35+   15                        30171.1018    22750.1669            24.60%
     56    36    23422.7774    36    30171.1018    22750.1669    12302   24.60%
     82    64    24083.4613    28    30171.1018    22750.1669    21037   24.60%
*    94+   68                        25233.9964    22750.1669             9.84%
*    99+   87                        25197.0554    22750.1669             9.71%
*   102+   85                        25081.8073    22750.1669             9.30%
*   129    94      integral     0    25066.4683    22750.1669    30035    9.24%
    131    93    24982.5821    15    25066.4683    22750.1669    29972    9.24%
    170    95    24882.8796    10    25066.4683    22750.1669    36781    9.24%
    213   126    25038.9311    16    25066.4683    22750.1669    45377    9.24%
*   269   172      integral     0    25052.5898    22750.1669    57527    9.19%
    270   169    25051.6688     2    25052.5898    22750.1669    55416    9.19%
*   282+  162                        25044.0983    22750.1669             9.16%
*   293+  165                        24944.9530    22750.1669             8.80%
*   327+  161                        24943.9779    22811.0915             8.55%
    374   183    24450.2113    28    24943.9779    22811.0915    66566    8.55%
*   386+  167                        24911.0902    22811.0915             8.43%
    483   263    24704.5661    29    24911.0902    22811.0915    75407    8.43%
*   753+  277                        24892.1440    22811.0915             8.36%
*   769   347      integral     0    24890.0436    22811.0915    89368    8.35%
*  1056   405      integral     0    24737.1367    22811.0915    94191    7.79%
   1158   572    24045.9160    20    24737.1367    22816.0486   104828    7.77%
Elapsed time = 5.57 sec. (3757.01 ticks, tree = 19.97 MB, solutions = 21)
*  1528+  764                        24340.4329    22816.0486             6.26%
   1562   788    23742.4802    36    24340.4329    22816.0486   124785    6.26%
   1716   513    23533.1276    38    24340.4329    22816.0486    94500    6.26%
   2201   850    24194.0750    28    24340.4329    22816.0486   131800    6.26%
   3163  1751    23904.5617    32    24340.4329    22816.0486   144625    6.26%

GUB cover cuts applied:  0
Mixed integer rounding cuts applied:  11
Flow path cuts applied:  0
Gomory fractional cuts applied:  53

Root node processing (before b&c):
  Real time             =    1.15 sec. (596.55 ticks)
Parallel b&c, 8 threads:
  Real time             =   13.03 sec. (9414.70 ticks)
  Sync time (average)   =    2.39 sec.
  Wait time (average)   =    0.00 sec.
                          ------------
Total (root+branch&cut) =   14.18 sec. (10011.25 ticks)
Gap: 6.26%
Upper bound: 24340.4
Lower bound: 22816
End of CPLEX run. Time: 14.1854 seconds

===== New CPLEX run =====
Instance: /home/yorig/tuner/mpils-tests/instances/miplib/medium-2/supportcase40.mps
Config: /scratch/yorig/mpils-results-grid-ticks-10000-2proc-no-mip-start/medium-2/2proc/seed-3/8_supportcase40_seed-3_20260501_234041/iterated_local_search/run_2_worker_1/ils_config_11998024068532049914.prm
========================

Selected objective sense:  MINIMIZE
Selected objective  name:  obj
Selected RHS        name:  rhs
Selected bound      name:  bnd
Version identifier: 22.1.2.0 | 2024-11-26 | 0edbb82fd
CPXPARAM_Threads                                 8
CPXPARAM_Parallel                                1
CPXPARAM_MIP_Cuts_Cliques                        -1
CPXPARAM_MIP_Cuts_FlowCovers                     -1
CPXPARAM_MIP_Cuts_Implied                        -1
CPXPARAM_MIP_Cuts_GUBCovers                      2
CPXPARAM_MIP_Limits_GomoryCand                   150
CPXPARAM_MIP_Cuts_Gomory                         2
CPXPARAM_MIP_Cuts_PathCut                        2
CPXPARAM_MIP_Cuts_MIRCut                         2
CPXPARAM_Emphasis_MIP                            1
CPXPARAM_DetTimeLimit                            10000
CPXPARAM_MIP_Limits_ProbeTime                    5
Tried aggregator 2 times.
MIP Presolve eliminated 29622 rows and 11272 columns.
MIP Presolve modified 700 coefficients.
Aggregator did 100 substitutions.
Reduced MIP has 8469 rows, 5068 columns, and 24192 nonzeros.
Reduced MIP has 300 binaries, 0 generals, 0 SOSs, and 0 indicators.
Presolve time = 0.01 sec. (31.66 ticks)
Found incumbent of value 213568.377872 after 0.05 sec. (64.35 ticks)
Probing time = 0.10 sec. (1.10 ticks)
Tried aggregator 1 time.
Detecting symmetries...
Reduced MIP has 8469 rows, 5068 columns, and 24192 nonzeros.
Reduced MIP has 300 binaries, 0 generals, 0 SOSs, and 0 indicators.
Presolve time = 0.01 sec. (12.02 ticks)
Probing time = 0.16 sec. (0.85 ticks)
Clique table members: 100.
MIP emphasis: integer feasibility.
MIP search method: dynamic search.
Parallel mode: deterministic, using up to 8 threads.
Root relaxation solution time = 0.16 sec. (175.06 ticks)

        Nodes                                         Cuts/
   Node  Left     Objective  IInf  Best Integer    Best Bound    ItCnt     Gap

*     0+    0                       213568.3779     3301.6156            98.45%
*     0+    0                        36874.2135     3301.6156            91.05%
      0     0    22536.4834    38    36874.2135    22536.4834     4631   38.88%
      0     0    22643.5396    38    36874.2135      Cuts: 34     4896   38.59%
*     0+    0                        31791.2147    22643.5396            28.77%
      0     0    22702.3791    38    31791.2147      Cuts: 30     5053   28.59%
      0     0    22720.6527    42    31791.2147      Cuts: 23     5097   28.53%
Detecting symmetries...
      0     2    22720.6527    42    31791.2147    22720.6527     5097   28.53%
Elapsed time = 0.84 sec. (599.51 ticks, tree = 0.02 MB, solutions = 3)
     14     4    24006.4825    26    31791.2147    22750.1669     6554   28.44%
*    19+    2                        31454.7694    22750.1669            27.67%
*    35+   15                        30171.1018    22750.1669            24.60%
     56    36    23422.7774    36    30171.1018    22750.1669    12302   24.60%
     82    64    24083.4613    28    30171.1018    22750.1669    21037   24.60%
*    94+   68                        25233.9964    22750.1669             9.84%
*    99+   87                        25197.0554    22750.1669             9.71%
*   102+   85                        25081.8073    22750.1669             9.30%
*   129    94      integral     0    25066.4683    22750.1669    30035    9.24%
    131    93    24982.5821    15    25066.4683    22750.1669    29972    9.24%
    170    95    24882.8796    10    25066.4683    22750.1669    36781    9.24%
    213   126    25038.9311    16    25066.4683    22750.1669    45377    9.24%
*   269   172      integral     0    25052.5898    22750.1669    57527    9.19%
    270   169    25051.6688     2    25052.5898    22750.1669    55416    9.19%
*   282+  162                        25044.0983    22750.1669             9.16%
*   293+  165                        24944.9530    22750.1669             8.80%
*   327+  161                        24943.9779    22811.0915             8.55%
    374   183    24450.2113    28    24943.9779    22811.0915    66566    8.55%
*   386+  167                        24911.0902    22811.0915             8.43%
    483   263    24704.5661    29    24911.0902    22811.0915    75407    8.43%
*   753+  277                        24892.1440    22811.0915             8.36%
*   769   347      integral     0    24890.0436    22811.0915    89368    8.35%
*  1056   405      integral     0    24737.1367    22811.0915    94191    7.79%
   1158   572    24045.9160    20    24737.1367    22816.0486   104828    7.77%
Elapsed time = 5.36 sec. (3756.89 ticks, tree = 19.97 MB, solutions = 21)
*  1528+  764                        24340.4329    22816.0486             6.26%
   1562   788    23742.4802    36    24340.4329    22816.0486   124785    6.26%
   1716   513    23533.1276    38    24340.4329    22816.0486    94500    6.26%
   2201   850    24194.0750    28    24340.4329    22816.0486   131800    6.26%
   3163  1751    23904.5617    32    24340.4329    22816.0486   144625    6.26%

GUB cover cuts applied:  0
Mixed integer rounding cuts applied:  11
Flow path cuts applied:  0
Gomory fractional cuts applied:  53

Root node processing (before b&c):
  Real time             =    0.77 sec. (596.43 ticks)
Parallel b&c, 8 threads:
  Real time             =   12.80 sec. (9414.82 ticks)
  Sync time (average)   =    2.30 sec.
  Wait time (average)   =    0.00 sec.
                          ------------
Total (root+branch&cut) =   13.57 sec. (10011.25 ticks)
Gap: 6.26%
Upper bound: 24340.4
Lower bound: 22816
End of CPLEX run. Time: 13.5843 seconds
